c Created with the Wolfram Language : www.wolfram.com
c 
p edge 70 461
e 1 4
e 4 5
e 3 6
e 1 7
e 5 7
e 2 8
e 3 8
e 1 10
e 6 10
e 3 11
e 8 11
e 9 11
e 4 12
e 9 12
e 11 12
e 9 13
e 12 13
e 7 14
e 12 14
e 13 14
e 1 15
e 3 16
e 4 16
e 7 16
e 9 16
e 6 17
e 7 17
e 9 17
e 13 17
e 14 17
e 2 18
e 5 18
e 13 18
e 3 19
e 13 19
e 14 19
e 15 19
e 5 20
e 9 20
e 16 20
e 2 21
e 5 21
e 7 21
e 9 21
e 10 21
e 17 21
e 18 21
e 20 21
e 6 22
e 21 22
e 1 23
e 3 23
e 5 23
e 6 23
e 18 23
e 20 23
e 17 24
e 18 24
e 13 25
e 16 25
e 17 25
e 19 25
e 2 26
e 17 26
e 4 27
e 23 27
e 25 27
e 1 28
e 7 28
e 10 28
e 17 28
e 21 28
e 1 29
e 2 29
e 12 29
e 19 29
e 24 29
e 3 30
e 6 30
e 14 30
e 21 30
e 24 30
e 3 31
e 9 31
e 18 31
e 30 31
e 4 32
e 12 32
e 14 32
e 19 32
e 26 32
e 30 32
e 4 33
e 5 33
e 12 33
e 16 33
e 21 33
e 25 33
e 30 33
e 31 33
e 32 33
e 5 34
e 6 34
e 10 34
e 11 34
e 13 34
e 17 34
e 23 34
e 27 34
e 15 35
e 16 35
e 18 35
e 20 35
e 29 35
e 33 35
e 9 36
e 19 36
e 21 36
e 22 36
e 23 36
e 12 37
e 16 37
e 20 37
e 28 37
e 35 37
e 36 37
e 3 38
e 7 38
e 19 38
e 24 38
e 25 38
e 27 38
e 28 38
e 29 38
e 30 38
e 31 38
e 36 38
e 10 39
e 11 39
e 18 39
e 19 39
e 22 39
e 26 39
e 27 39
e 28 39
e 34 39
e 36 39
e 2 40
e 5 40
e 8 40
e 10 40
e 17 40
e 21 40
e 24 40
e 26 40
e 28 40
e 2 41
e 11 41
e 15 41
e 21 41
e 24 41
e 33 41
e 38 41
e 1 42
e 11 42
e 21 42
e 24 42
e 25 42
e 36 42
e 7 43
e 11 43
e 16 43
e 19 43
e 20 43
e 23 43
e 31 43
e 40 43
e 1 44
e 5 44
e 6 44
e 22 44
e 28 44
e 30 44
e 3 45
e 6 45
e 10 45
e 14 45
e 23 45
e 33 45
e 34 45
e 42 45
e 3 46
e 4 46
e 15 46
e 22 46
e 26 46
e 28 46
e 41 46
e 45 46
e 3 47
e 6 47
e 7 47
e 15 47
e 16 47
e 25 47
e 11 48
e 14 48
e 17 48
e 22 48
e 32 48
e 33 48
e 37 48
e 38 48
e 2 49
e 13 49
e 19 49
e 20 49
e 21 49
e 24 49
e 29 49
e 38 49
e 40 49
e 44 49
e 2 50
e 8 50
e 12 50
e 15 50
e 29 50
e 36 50
e 38 50
e 41 50
e 43 50
e 44 50
e 9 51
e 11 51
e 17 51
e 18 51
e 19 51
e 31 51
e 38 51
e 40 51
e 7 52
e 13 52
e 15 52
e 19 52
e 24 52
e 27 52
e 32 52
e 47 52
e 13 53
e 14 53
e 21 53
e 26 53
e 28 53
e 33 53
e 35 53
e 41 53
e 48 53
e 49 53
e 4 54
e 15 54
e 19 54
e 22 54
e 25 54
e 26 54
e 37 54
e 39 54
e 42 54
e 43 54
e 48 54
e 51 54
e 52 54
e 10 55
e 18 55
e 33 55
e 35 55
e 39 55
e 42 55
e 43 55
e 44 55
e 45 55
e 53 55
e 5 56
e 6 56
e 12 56
e 16 56
e 20 56
e 28 56
e 31 56
e 36 56
e 39 56
e 47 56
e 48 56
e 52 56
e 3 57
e 6 57
e 14 57
e 31 57
e 33 57
e 35 57
e 38 57
e 40 57
e 42 57
e 48 57
e 52 57
e 1 58
e 7 58
e 15 58
e 16 58
e 19 58
e 21 58
e 27 58
e 35 58
e 40 58
e 42 58
e 43 58
e 46 58
e 48 58
e 53 58
e 5 59
e 6 59
e 7 59
e 16 59
e 21 59
e 25 59
e 27 59
e 32 59
e 39 59
e 44 59
e 49 59
e 51 59
e 52 59
e 12 60
e 14 60
e 17 60
e 25 60
e 26 60
e 29 60
e 32 60
e 36 60
e 40 60
e 49 60
e 50 60
e 52 60
e 58 60
e 2 61
e 5 61
e 6 61
e 20 61
e 26 61
e 27 61
e 39 61
e 44 61
e 47 61
e 57 61
e 4 62
e 9 62
e 11 62
e 23 62
e 24 62
e 27 62
e 33 62
e 35 62
e 37 62
e 43 62
e 53 62
e 55 62
e 58 62
e 3 63
e 7 63
e 17 63
e 20 63
e 38 63
e 45 63
e 48 63
e 49 63
e 50 63
e 54 63
e 58 63
e 61 63
e 5 64
e 7 64
e 11 64
e 17 64
e 19 64
e 30 64
e 46 64
e 47 64
e 49 64
e 51 64
e 5 65
e 18 65
e 19 65
e 20 65
e 24 65
e 27 65
e 39 65
e 48 65
e 51 65
e 56 65
e 58 65
e 7 66
e 14 66
e 19 66
e 23 66
e 25 66
e 33 66
e 38 66
e 41 66
e 44 66
e 46 66
e 58 66
e 61 66
e 65 66
e 1 67
e 5 67
e 10 67
e 13 67
e 28 67
e 32 67
e 35 67
e 38 67
e 54 67
e 63 67
e 1 68
e 12 68
e 16 68
e 27 68
e 47 68
e 52 68
e 57 68
e 61 68
e 62 68
e 63 68
e 2 69
e 6 69
e 17 69
e 18 69
e 32 69
e 34 69
e 35 69
e 37 69
e 38 69
e 44 69
e 48 69
e 55 69
e 64 69
e 65 69
e 1 70
e 4 70
e 7 70
e 9 70
e 12 70
e 27 70
e 38 70
e 41 70
e 46 70
e 49 70
e 52 70
e 58 70
e 59 70
